16,0	0,0	11,7	12,9	0,0	0,0	0,0	0,0	0,0	15,6
19,0	16,3	0,0	18,1	7,1	0,0	0,0	9,9	0,0	0,0
0,0	0,0	11,0	0,0	8,8	8,2	0,0	0,0	6,3	0,0
19,8	0,0	9,2	0,0	0,0	0,0	17,8	0,0	0,0	0,0
0,0	12,5	0,0	18,1	17,1	0,0	0,0	18,0	0,0	0,0
0,0	13,9	14,8	0,0	6,0	15,6	0,0	0,0	17,4	0,0
0,0	18,3	0,0	19,2	0,0	0,0	17,9	0,0	0,0	18,8
17,8	0,0	19,9	0,0	0,0	0,0	0,0	0,0	0,0	18,2
0,0	15,6	0,0	9,8	13,8	0,0	0,0	6,3	0,0	0,0
0,0	0,0	19,5	0,0	0,0	11,3	10,7	0,0	0,0	10,9
									
3,6	4,6	4,5	2,9	4,0	3,1	2,6	3,4	4,7	4,7
